
Gurobi 10.0.2 (win64) logging started Fri Jun 21 03:40:58 2024

Set parameter LogFile to value "log/log_difficulty1_MNL_DESKTOP-S7OVCUR_9_31.txt"
Gurobi Optimizer version 10.0.2 build v10.0.2rc0 (win64)

CPU model: Intel(R) Core(TM) i7-10510U CPU @ 1.80GHz, instruction set [SSE2|AVX|AVX2]
Thread count: 4 physical cores, 8 logical processors, using up to 8 threads

Optimize a model with 2020 rows, 676 columns and 4612 nonzeros
Model fingerprint: 0xb4822f3d
Variable types: 364 continuous, 312 integer (312 binary)
Coefficient statistics:
  Matrix range     [4e-03, 3e+02]
  Objective range  [1e+02, 6e+02]
  Bounds range     [1e+00, 1e+00]
  RHS range        [1e+00, 1e+00]
Found heuristic solution: objective -0.0000000
Presolve removed 224 rows and 104 columns
Presolve time: 0.02s
Presolved: 1796 rows, 572 columns, 4226 nonzeros
Found heuristic solution: objective 2478.3383372
Variable types: 308 continuous, 264 integer (264 binary)

Root relaxation: objective 1.518859e+04, 422 iterations, 0.00 seconds (0.00 work units)

    Nodes    |    Current Node    |     Objective Bounds      |     Work
 Expl Unexpl |  Obj  Depth IntInf | Incumbent    BestBd   Gap | It/Node Time

     0     0 15188.5915    0  160 2478.33834 15188.5915   513%     -    0s
H    0     0                    9341.5197017 15188.5915  62.6%     -    0s
H    0     0                    10255.461798 15188.5915  48.1%     -    0s
H    0     0                    12955.324070 15188.5915  17.2%     -    0s
H    0     0                    13206.147292 14389.0708  8.96%     -    0s
     0     0 14389.0708    0  185 13206.1473 14389.0708  8.96%     -    0s
     0     0 14382.7992    0  189 13206.1473 14382.7992  8.91%     -    0s
     0     0 14381.4418    0  188 13206.1473 14381.4418  8.90%     -    0s
     0     0 14381.4418    0  188 13206.1473 14381.4418  8.90%     -    0s
H    0     0                    13273.458775 14092.5890  6.17%     -    0s
     0     0 14092.5890    0  185 13273.4588 14092.5890  6.17%     -    0s
H    0     0                    13691.656452 14059.2016  2.68%     -    0s
     0     0 14059.2016    0  182 13691.6565 14059.2016  2.68%     -    0s
     0     0 14055.2514    0  186 13691.6565 14055.2514  2.66%     -    0s
     0     0 14054.1441    0  187 13691.6565 14054.1441  2.65%     -    0s
     0     0 14053.4492    0  190 13691.6565 14053.4492  2.64%     -    0s
     0     0 14053.1475    0  190 13691.6565 14053.1475  2.64%     -    0s
     0     0 13870.2809    0  181 13691.6565 13870.2809  1.30%     -    0s
     0     0 13863.0043    0  183 13691.6565 13863.0043  1.25%     -    0s
     0     0 13859.0151    0  180 13691.6565 13859.0151  1.22%     -    0s
     0     0 13858.2056    0  181 13691.6565 13858.2056  1.22%     -    0s
H    0     0                    13757.864743 13858.2056  0.73%     -    0s
     0     0 13858.2056    0  181 13757.8647 13858.2056  0.73%     -    0s
H    0     0                    13790.788691 13858.2056  0.49%     -    0s
     0     0 13792.5883    0  160 13790.7887 13792.5883  0.01%     -    0s
     0     0 13791.5638    0  131 13790.7887 13791.5638  0.01%     -    0s

Cutting planes:
  Gomory: 39
  Implied bound: 31
  MIR: 59
  Flow cover: 104
  RLT: 70
  Relax-and-lift: 11
  BQP: 7

Explored 1 nodes (2274 simplex iterations) in 0.50 seconds (0.19 work units)
Thread count was 8 (of 8 available processors)

Solution count 10: 13790.8 13757.9 13691.7 ... -0

Optimal solution found (tolerance 1.00e-04)
Best objective 1.379078869105e+04, best bound 1.379156382711e+04, gap 0.0056%
